NAME : zqloutput/eax-hard-simple-rescaleandround/50-1.tsp
TYPE : TSP
DIMENSION : 50
EDGE_WEIGHT_TYPE : EUC_2D
NODE_COORD_SECTION
1 605771 765475
2 439138 401312
3 950350 388225
4 897510 702569
5 397720 793852
6 36068 659345
7 399206 776355
8 718282 794790
9 289102 159551
10 480597 886359
11 100949 749311
12 305617 232786
13 762853 376042
14 63561 573686
15 573377 219228
16 564283 590259
17 412654 222740
18 206349 991961
19 678969 297755
20 911379 973158
21 661399 508325
22 905000 452866
23 661468 938025
24 427798 361728
25 737838 237829
26 369317 993243
27 518430 780299
28 990660 83464
29 447744 182688
30 778833 696370
31 467786 351145
32 642235 508542
33 348230 544554
34 23485 626655
35 249813 967640
36 720354 884997
37 740663 260499
38 991072 359261
39 959125 347067
40 555404 678455
41 314591 359622
42 984173 495463
43 988426 131033
44 655097 578552
45 823422 392129
46 627859 534229
47 503185 296703
48 575072 536381
49 283373 862498
50 632825 10880
EOF
